p cnf 152 582
38 40 74 87 0
68 70 0
66 80 0
31 33 58 62 63 95 96 100 0
78 103 0
81 105 106 108 110 0
65 88 91 111 112 0
44 46 49 55 118 139 0
67 72 0
75 101 123 0
39 41 0
35 37 0
56 93 0
28 30 32 60 98 0
52 64 82 0
27 45 84 90 0
25 76 0
42 114 0
69 116 0
34 57 61 94 97 0
107 109 117 0
85 113 0
48 54 119 0
26 77 122 124 125 0
127 128 0
129 130 0
131 132 134 0
43 115 135 136 0
36 71 0
29 59 79 99 0
53 83 92 0
50 73 121 138 0
102 126 0
133 141 0
-40 -70 0
-40 -63 0
-40 -105 0
-63 -70 0
-70 -105 0
-63 -105 0
-72 -142 0
-72 -123 0
-72 -143 0
-123 -142 0
-142 -143 0
-123 -143 0
-69 -144 0
-34 -144 0
-117 -144 0
-34 -69 0
-69 -117 0
-34 -117 0
-140 -145 0
-122 -140 0
-129 -140 0
-122 -145 0
-129 -145 0
-122 -129 0
-40 -72 0
-40 -144 0
-40 -140 0
-72 -144 0
-72 -140 0
-140 -144 0
-70 -142 0
-69 -70 0
-70 -145 0
-69 -142 0
-142 -145 0
-69 -145 0
-63 -123 0
-34 -63 0
-63 -122 0
-34 -123 0
-122 -123 0
-34 -122 0
-105 -143 0
-105 -117 0
-105 -129 0
-117 -143 0
-129 -143 0
-117 -129 0
-62 -80 0
-80 -112 0
-55 -80 0
-62 -112 0
-55 -62 0
-55 -112 0
-56 -98 0
-56 -90 0
-51 -56 0
-90 -98 0
-51 -98 0
-51 -90 0
-124 -146 0
-131 -146 0
-135 -146 0
-124 -131 0
-124 -135 0
-131 -135 0
-126 -147 0
-133 -147 0
-137 -147 0
-126 -133 0
-126 -137 0
-133 -137 0
-56 -80 0
-80 -146 0
-80 -147 0
-56 -146 0
-56 -147 0
-146 -147 0
-62 -98 0
-62 -124 0
-62 -126 0
-98 -124 0
-98 -126 0
-124 -126 0
-90 -112 0
-112 -131 0
-112 -133 0
-90 -131 0
-90 -133 0
-131 -133 0
-51 -55 0
-55 -135 0
-55 -137 0
-51 -135 0
-51 -137 0
-135 -137 0
-68 -96 0
-68 -78 0
-68 -91 0
-49 -68 0
-78 -96 0
-91 -96 0
-49 -96 0
-78 -91 0
-49 -78 0
-49 -91 0
-60 -148 0
-148 -149 0
-45 -148 0
-120 -148 0
-60 -149 0
-45 -60 0
-60 -120 0
-45 -149 0
-120 -149 0
-45 -120 0
-61 -116 0
-104 -116 0
-113 -116 0
-54 -116 0
-61 -104 0
-61 -113 0
-54 -61 0
-104 -113 0
-54 -104 0
-54 -113 0
-125 -150 0
-127 -150 0
-132 -150 0
-136 -150 0
-125 -127 0
-125 -132 0
-125 -136 0
-127 -132 0
-127 -136 0
-132 -136 0
-99 -151 0
-151 -152 0
-89 -151 0
-50 -151 0
-99 -152 0
-89 -99 0
-50 -99 0
-89 -152 0
-50 -152 0
-50 -89 0
-68 -148 0
-68 -116 0
-68 -150 0
-68 -151 0
-116 -148 0
-148 -150 0
-148 -151 0
-116 -150 0
-116 -151 0
-150 -151 0
-60 -96 0
-61 -96 0
-96 -125 0
-96 -99 0
-60 -61 0
-60 -125 0
-60 -99 0
-61 -125 0
-61 -99 0
-99 -125 0
-78 -149 0
-78 -104 0
-78 -127 0
-78 -152 0
-104 -149 0
-127 -149 0
-149 -152 0
-104 -127 0
-104 -152 0
-127 -152 0
-45 -91 0
-91 -113 0
-91 -132 0
-89 -91 0
-45 -113 0
-45 -132 0
-45 -89 0
-113 -132 0
-89 -113 0
-89 -132 0
-49 -120 0
-49 -54 0
-49 -136 0
-49 -50 0
-54 -120 0
-120 -136 0
-50 -120 0
-54 -136 0
-50 -54 0
-50 -136 0
-66 -87 0
-58 -87 0
-87 -106 0
-87 -118 0
-58 -66 0
-66 -106 0
-66 -118 0
-58 -106 0
-58 -118 0
-106 -118 0
-37 -93 0
-32 -37 0
-37 -64 0
-37 -47 0
-32 -93 0
-64 -93 0
-47 -93 0
-32 -64 0
-32 -47 0
-47 -64 0
-23 -24 0
-24 -97 0
-24 -109 0
-24 -48 0
-23 -97 0
-23 -109 0
-23 -48 0
-97 -109 0
-48 -97 0
-48 -109 0
-21 -22 0
-22 -77 0
-22 -130 0
-22 -43 0
-21 -77 0
-21 -130 0
-21 -43 0
-77 -130 0
-43 -77 0
-43 -130 0
-20 -36 0
-36 -59 0
-36 -83 0
-36 -121 0
-20 -59 0
-20 -83 0
-20 -121 0
-59 -83 0
-59 -121 0
-83 -121 0
-37 -87 0
-24 -87 0
-22 -87 0
-36 -87 0
-24 -37 0
-22 -37 0
-36 -37 0
-22 -24 0
-24 -36 0
-22 -36 0
-66 -93 0
-23 -66 0
-21 -66 0
-20 -66 0
-23 -93 0
-21 -93 0
-20 -93 0
-21 -23 0
-20 -23 0
-20 -21 0
-32 -58 0
-58 -97 0
-58 -77 0
-58 -59 0
-32 -97 0
-32 -77 0
-32 -59 0
-77 -97 0
-59 -97 0
-59 -77 0
-64 -106 0
-106 -109 0
-106 -130 0
-83 -106 0
-64 -109 0
-64 -130 0
-64 -83 0
-109 -130 0
-83 -109 0
-83 -130 0
-47 -118 0
-48 -118 0
-43 -118 0
-118 -121 0
-47 -48 0
-43 -47 0
-47 -121 0
-43 -48 0
-48 -121 0
-43 -121 0
-33 -38 0
-38 -103 0
-38 -111 0
-38 -46 0
-33 -103 0
-33 -111 0
-33 -46 0
-103 -111 0
-46 -103 0
-46 -111 0
-19 -76 0
-18 -19 0
-17 -19 0
-19 -42 0
-18 -76 0
-17 -76 0
-42 -76 0
-17 -18 0
-18 -42 0
-17 -42 0
-57 -86 0
-16 -86 0
-85 -86 0
-86 -119 0
-16 -57 0
-57 -85 0
-57 -119 0
-16 -85 0
-16 -119 0
-85 -119 0
-15 -26 0
-15 -128 0
-15 -134 0
-15 -115 0
-26 -128 0
-26 -134 0
-26 -115 0
-128 -134 0
-115 -128 0
-115 -134 0
-14 -102 0
-13 -14 0
-14 -141 0
-12 -14 0
-13 -102 0
-102 -141 0
-12 -102 0
-13 -141 0
-12 -13 0
-12 -141 0
-19 -38 0
-38 -86 0
-15 -38 0
-14 -38 0
-19 -86 0
-15 -19 0
-14 -19 0
-15 -86 0
-14 -86 0
-14 -15 0
-33 -76 0
-33 -57 0
-26 -33 0
-33 -102 0
-57 -76 0
-26 -76 0
-76 -102 0
-26 -57 0
-57 -102 0
-26 -102 0
-18 -103 0
-16 -103 0
-103 -128 0
-13 -103 0
-16 -18 0
-18 -128 0
-13 -18 0
-16 -128 0
-13 -16 0
-13 -128 0
-17 -111 0
-85 -111 0
-111 -134 0
-111 -141 0
-17 -85 0
-17 -134 0
-17 -141 0
-85 -134 0
-85 -141 0
-134 -141 0
-42 -46 0
-46 -119 0
-46 -115 0
-12 -46 0
-42 -119 0
-42 -115 0
-12 -42 0
-115 -119 0
-12 -119 0
-12 -115 0
-74 -95 0
-74 -108 0
-65 -74 0
-44 -74 0
-95 -108 0
-65 -95 0
-44 -95 0
-65 -108 0
-44 -108 0
-44 -65 0
-67 -75 0
-11 -67 0
-10 -67 0
-41 -67 0
-11 -75 0
-10 -75 0
-41 -75 0
-10 -11 0
-11 -41 0
-10 -41 0
-30 -35 0
-35 -82 0
-35 -84 0
-9 -35 0
-30 -82 0
-30 -84 0
-9 -30 0
-82 -84 0
-9 -82 0
-9 -84 0
-8 -25 0
-7 -8 0
-6 -8 0
-8 -114 0
-7 -25 0
-6 -25 0
-25 -114 0
-6 -7 0
-7 -114 0
-6 -114 0
-29 -71 0
-53 -71 0
-5 -71 0
-71 -73 0
-29 -53 0
-5 -29 0
-29 -73 0
-5 -53 0
-53 -73 0
-5 -73 0
-67 -74 0
-35 -74 0
-8 -74 0
-71 -74 0
-35 -67 0
-8 -67 0
-67 -71 0
-8 -35 0
-35 -71 0
-8 -71 0
-75 -95 0
-30 -95 0
-25 -95 0
-29 -95 0
-30 -75 0
-25 -75 0
-29 -75 0
-25 -30 0
-29 -30 0
-25 -29 0
-11 -108 0
-82 -108 0
-7 -108 0
-53 -108 0
-11 -82 0
-7 -11 0
-11 -53 0
-7 -82 0
-53 -82 0
-7 -53 0
-10 -65 0
-65 -84 0
-6 -65 0
-5 -65 0
-10 -84 0
-6 -10 0
-5 -10 0
-6 -84 0
-5 -84 0
-5 -6 0
-41 -44 0
-9 -44 0
-44 -114 0
-44 -73 0
-9 -41 0
-41 -114 0
-41 -73 0
-9 -114 0
-9 -73 0
-73 -114 0
-31 -81 0
-94 -107 0
-31 -94 0
-81 -107 0
-100 -110 0
-88 -100 0
-100 -139 0
-88 -110 0
-110 -139 0
-88 -139 0
-4 -101 0
-3 -101 0
-39 -101 0
-3 -4 0
-4 -39 0
-3 -39 0
-28 -52 0
-27 -28 0
-2 -28 0
-27 -52 0
-2 -52 0
-2 -27 0
-79 -92 0
-1 -79 0
-79 -138 0
-1 -92 0
-92 -138 0
-1 -138 0
-100 -101 0
-28 -100 0
-79 -100 0
-28 -101 0
-79 -101 0
-28 -79 0
-4 -110 0
-52 -110 0
-92 -110 0
-4 -52 0
-4 -92 0
-52 -92 0
-3 -88 0
-27 -88 0
-1 -88 0
-3 -27 0
-1 -3 0
-1 -27 0
-39 -139 0
-2 -139 0
-138 -139 0
-2 -39 0
-39 -138 0
-2 -138 0
